p cnf 1093 2944
1 0
-62 41 0
-62 51 0
62 -41 -51 0
-63 43 0
-63 62 0
63 -43 -62 0
-64 -63 0
-64 -63 0
64 63 63 0
-65 64 0
-65 64 0
65 -64 -64 0
-66 41 0
-66 51 0
66 -41 -51 0
-67 43 0
-67 66 0
67 -43 -66 0
-68 -67 0
-68 -67 0
68 67 67 0
-69 68 0
-69 68 0
69 -68 -68 0
-70 65 0
-70 -69 0
-71 -65 0
-71 69 0
72 70 71 0
-73 41 0
-73 42 0
73 -41 -42 0
-74 52 0
-74 73 0
74 -52 -73 0
-75 -74 0
-75 -74 0
75 74 74 0
-76 75 0
-76 75 0
76 -75 -75 0
-77 41 0
-77 42 0
77 -41 -42 0
-78 52 0
-78 77 0
78 -52 -77 0
-79 -78 0
-79 -78 0
79 78 78 0
-80 79 0
-80 79 0
80 -79 -79 0
-81 76 0
-81 -80 0
-82 -76 0
-82 80 0
83 81 82 0
84 -72 -83 0
-85 41 0
-85 42 0
85 -41 -42 0
-86 43 0
-86 85 0
86 -43 -85 0
-87 -86 0
-87 -86 0
87 86 86 0
-88 87 0
-88 87 0
88 -87 -87 0
-89 41 0
-89 42 0
89 -41 -42 0
-90 43 0
-90 89 0
90 -43 -89 0
-91 -90 0
-91 -90 0
91 90 90 0
-92 91 0
-92 91 0
92 -91 -91 0
-93 88 0
-93 -92 0
-94 -88 0
-94 92 0
95 93 94 0
96 -84 -95 0
-97 53 0
-97 54 0
97 -53 -54 0
-98 -97 0
-98 -97 0
98 97 97 0
-99 98 0
-99 98 0
99 -98 -98 0
-100 53 0
-100 54 0
100 -53 -54 0
-101 -100 0
-101 -100 0
101 100 100 0
-102 101 0
-102 101 0
102 -101 -101 0
-103 99 0
-103 -102 0
-104 -99 0
-104 102 0
105 103 104 0
106 -96 -105 0
-107 26 0
-107 58 0
107 -26 -58 0
-108 11 0
-108 107 0
108 -11 -107 0
-109 22 0
-109 108 0
109 -22 -108 0
-110 109 0
-110 109 0
110 -109 -109 0
-111 110 0
-111 110 0
111 -110 -110 0
-112 111 0
-112 111 0
112 -111 -111 0
-113 26 0
-113 58 0
113 -26 -58 0
-114 11 0
-114 113 0
114 -11 -113 0
-115 22 0
-115 114 0
115 -22 -114 0
-116 115 0
-116 115 0
116 -115 -115 0
-117 116 0
-117 116 0
117 -116 -116 0
-118 117 0
-118 117 0
118 -117 -117 0
-119 112 0
-119 -118 0
-120 -112 0
-120 118 0
121 119 120 0
122 -106 -121 0
-123 26 0
-123 40 0
123 -26 -40 0
-124 11 0
-124 123 0
124 -11 -123 0
-125 22 0
-125 124 0
125 -22 -124 0
-126 41 0
-126 42 0
126 -41 -42 0
-127 43 0
-127 126 0
127 -43 -126 0
-128 125 0
-128 -127 0
128 -125 127 0
-129 128 0
-129 128 0
129 -128 -128 0
-130 129 0
-130 129 0
130 -129 -129 0
-131 26 0
-131 40 0
131 -26 -40 0
-132 11 0
-132 131 0
132 -11 -131 0
-133 22 0
-133 132 0
133 -22 -132 0
-134 41 0
-134 42 0
134 -41 -42 0
-135 43 0
-135 134 0
135 -43 -134 0
-136 133 0
-136 -135 0
136 -133 135 0
-137 136 0
-137 136 0
137 -136 -136 0
-138 137 0
-138 137 0
138 -137 -137 0
-139 130 0
-139 -138 0
-140 -130 0
-140 138 0
141 139 140 0
142 -122 -141 0
-143 46 0
-143 51 0
143 -46 -51 0
-144 52 0
-144 143 0
144 -52 -143 0
-145 -144 0
-145 -144 0
145 144 144 0
-146 145 0
-146 145 0
146 -145 -145 0
-147 146 0
-147 146 0
147 -146 -146 0
-148 46 0
-148 51 0
148 -46 -51 0
-149 52 0
-149 148 0
149 -52 -148 0
-150 -149 0
-150 -149 0
150 149 149 0
-151 150 0
-151 150 0
151 -150 -150 0
-152 151 0
-152 151 0
152 -151 -151 0
-153 147 0
-153 -152 0
-154 -147 0
-154 152 0
155 153 154 0
156 -142 -155 0
-157 42 0
-157 46 0
157 -42 -46 0
-158 52 0
-158 157 0
158 -52 -157 0
-159 -158 0
-159 -158 0
159 158 158 0
-160 159 0
-160 159 0
160 -159 -159 0
-161 160 0
-161 160 0
161 -160 -160 0
-162 42 0
-162 46 0
162 -42 -46 0
-163 52 0
-163 162 0
163 -52 -162 0
-164 -163 0
-164 -163 0
164 163 163 0
-165 164 0
-165 164 0
165 -164 -164 0
-166 165 0
-166 165 0
166 -165 -165 0
-167 161 0
-167 -166 0
-168 -161 0
-168 166 0
169 167 168 0
170 -156 -169 0
-171 42 0
-171 46 0
171 -42 -46 0
-172 43 0
-172 171 0
172 -43 -171 0
-173 -172 0
-173 -172 0
173 172 172 0
-174 173 0
-174 173 0
174 -173 -173 0
-175 174 0
-175 174 0
175 -174 -174 0
-176 42 0
-176 46 0
176 -42 -46 0
-177 43 0
-177 176 0
177 -43 -176 0
-178 -177 0
-178 -177 0
178 177 177 0
-179 178 0
-179 178 0
179 -178 -178 0
-180 179 0
-180 179 0
180 -179 -179 0
-181 175 0
-181 -180 0
-182 -175 0
-182 180 0
183 181 182 0
184 -170 -183 0
-185 -55 0
-185 -56 0
185 55 56 0
-186 59 0
-186 -185 0
186 -59 185 0
-187 -186 0
-187 -186 0
187 186 186 0
-188 187 0
-188 187 0
188 -187 -187 0
-189 -55 0
-189 -56 0
189 55 56 0
-190 59 0
-190 -189 0
190 -59 189 0
-191 -190 0
-191 -190 0
191 190 190 0
-192 191 0
-192 191 0
192 -191 -191 0
-193 188 0
-193 -192 0
-194 -188 0
-194 192 0
195 193 194 0
196 -184 -195 0
-197 -127 0
-197 -127 0
197 127 127 0
-198 125 0
-198 197 0
198 -125 -197 0
-199 198 0
-199 198 0
199 -198 -198 0
-200 199 0
-200 199 0
200 -199 -199 0
-201 -135 0
-201 -135 0
201 135 135 0
-202 133 0
-202 201 0
202 -133 -201 0
-203 202 0
-203 202 0
203 -202 -202 0
-204 203 0
-204 203 0
204 -203 -203 0
-205 200 0
-205 -204 0
-206 -200 0
-206 204 0
207 205 206 0
208 -196 -207 0
-209 26 0
-209 40 0
209 -26 -40 0
-210 44 0
-210 209 0
210 -44 -209 0
-211 -210 0
-211 -210 0
211 210 210 0
-212 211 0
-212 211 0
212 -211 -211 0
-213 212 0
-213 212 0
213 -212 -212 0
-214 213 0
-214 213 0
214 -213 -213 0
-215 26 0
-215 40 0
215 -26 -40 0
-216 44 0
-216 215 0
216 -44 -215 0
-217 -216 0
-217 -216 0
217 216 216 0
-218 217 0
-218 217 0
218 -217 -217 0
-219 218 0
-219 218 0
219 -218 -218 0
-220 219 0
-220 219 0
220 -219 -219 0
-221 214 0
-221 -220 0
-222 -214 0
-222 220 0
223 221 222 0
224 -208 -223 0
-225 26 0
-225 58 0
225 -26 -58 0
-226 11 0
-226 225 0
226 -11 -225 0
-227 45 0
-227 226 0
227 -45 -226 0
-228 41 0
-228 47 0
228 -41 -47 0
-229 227 0
-229 228 0
229 -227 -228 0
-230 229 0
-230 229 0
230 -229 -229 0
-231 230 0
-231 230 0
231 -230 -230 0
-232 231 0
-232 231 0
232 -231 -231 0
-233 26 0
-233 58 0
233 -26 -58 0
-234 11 0
-234 233 0
234 -11 -233 0
-235 45 0
-235 234 0
235 -45 -234 0
-236 41 0
-236 47 0
236 -41 -47 0
-237 235 0
-237 236 0
237 -235 -236 0
-238 237 0
-238 237 0
238 -237 -237 0
-239 238 0
-239 238 0
239 -238 -238 0
-240 239 0
-240 239 0
240 -239 -239 0
-241 232 0
-241 -240 0
-242 -232 0
-242 240 0
243 241 242 0
244 -224 -243 0
-245 46 0
-245 47 0
245 -46 -47 0
-246 50 0
-246 245 0
246 -50 -245 0
-247 227 0
-247 246 0
247 -227 -246 0
-248 247 0
-248 247 0
248 -247 -247 0
-249 248 0
-249 248 0
249 -248 -248 0
-250 249 0
-250 249 0
250 -249 -249 0
-251 46 0
-251 47 0
251 -46 -47 0
-252 50 0
-252 251 0
252 -50 -251 0
-253 235 0
-253 252 0
253 -235 -252 0
-254 253 0
-254 253 0
254 -253 -253 0
-255 254 0
-255 254 0
255 -254 -254 0
-256 255 0
-256 255 0
256 -255 -255 0
-257 250 0
-257 -256 0
-258 -250 0
-258 256 0
259 257 258 0
260 -244 -259 0
-261 57 0
-261 -185 0
261 -57 185 0
-262 261 0
-262 261 0
262 -261 -261 0
-263 262 0
-263 262 0
263 -262 -262 0
-264 263 0
-264 263 0
264 -263 -263 0
-265 57 0
-265 -189 0
265 -57 189 0
-266 265 0
-266 265 0
266 -265 -265 0
-267 266 0
-267 266 0
267 -266 -266 0
-268 267 0
-268 267 0
268 -267 -267 0
-269 264 0
-269 -268 0
-270 -264 0
-270 268 0
271 269 270 0
272 -260 -271 0
-273 60 0
-273 61 0
273 -60 -61 0
-274 -60 0
-274 -61 0
274 60 61 0
-275 -273 0
-275 -274 0
275 273 274 0
-276 2 0
-276 3 0
276 -2 -3 0
-277 -2 0
-277 -3 0
277 2 3 0
-278 -276 0
-278 -277 0
278 276 277 0
-279 -275 0
-279 -278 0
279 275 278 0
-280 275 0
-280 275 0
280 -275 -275 0
-281 278 0
-281 278 0
281 -278 -278 0
-282 -280 0
-282 -281 0
282 280 281 0
-283 -279 0
-283 -282 0
283 279 282 0
-284 8 0
-284 283 0
284 -8 -283 0
-285 -8 0
-285 -283 0
285 8 283 0
-286 -284 0
-286 -285 0
286 284 285 0
-287 4 0
-287 5 0
287 -4 -5 0
-288 -4 0
-288 -5 0
288 4 5 0
-289 -287 0
-289 -288 0
289 287 288 0
-290 6 0
-290 7 0
290 -6 -7 0
-291 -6 0
-291 -7 0
291 6 7 0
-292 -290 0
-292 -291 0
292 290 291 0
-293 -289 0
-293 -292 0
293 289 292 0
-294 289 0
-294 289 0
294 -289 -289 0
-295 292 0
-295 292 0
295 -292 -292 0
-296 -294 0
-296 -295 0
296 294 295 0
-297 -293 0
-297 -296 0
297 293 296 0
-298 9 0
-298 297 0
298 -9 -297 0
-299 -9 0
-299 -297 0
299 9 297 0
-300 -298 0
-300 -299 0
300 298 299 0
-301 -286 0
-301 -300 0
301 286 300 0
-302 286 0
-302 286 0
302 -286 -286 0
-303 300 0
-303 300 0
303 -300 -300 0
-304 -302 0
-304 -303 0
304 302 303 0
-305 -301 0
-305 -304 0
305 301 304 0
-306 -305 0
-306 -305 0
306 305 305 0
-307 306 0
-307 306 0
307 -306 -306 0
-308 60 0
-308 61 0
308 -60 -61 0
-309 -60 0
-309 -61 0
309 60 61 0
-310 -308 0
-310 -309 0
310 308 309 0
-311 2 0
-311 3 0
311 -2 -3 0
-312 -2 0
-312 -3 0
312 2 3 0
-313 -311 0
-313 -312 0
313 311 312 0
-314 -310 0
-314 -313 0
314 310 313 0
-315 310 0
-315 310 0
315 -310 -310 0
-316 313 0
-316 313 0
316 -313 -313 0
-317 -315 0
-317 -316 0
317 315 316 0
-318 -314 0
-318 -317 0
318 314 317 0
-319 8 0
-319 318 0
319 -8 -318 0
-320 -8 0
-320 -318 0
320 8 318 0
-321 -319 0
-321 -320 0
321 319 320 0
-322 4 0
-322 5 0
322 -4 -5 0
-323 -4 0
-323 -5 0
323 4 5 0
-324 -322 0
-324 -323 0
324 322 323 0
-325 6 0
-325 7 0
325 -6 -7 0
-326 -6 0
-326 -7 0
326 6 7 0
-327 -325 0
-327 -326 0
327 325 326 0
-328 -324 0
-328 -327 0
328 324 327 0
-329 324 0
-329 324 0
329 -324 -324 0
-330 327 0
-330 327 0
330 -327 -327 0
-331 -329 0
-331 -330 0
331 329 330 0
-332 -328 0
-332 -331 0
332 328 331 0
-333 9 0
-333 332 0
333 -9 -332 0
-334 -9 0
-334 -332 0
334 9 332 0
-335 -333 0
-335 -334 0
335 333 334 0
-336 -321 0
-336 -335 0
336 321 335 0
-337 321 0
-337 321 0
337 -321 -321 0
-338 335 0
-338 335 0
338 -335 -335 0
-339 -337 0
-339 -338 0
339 337 338 0
-340 -336 0
-340 -339 0
340 336 339 0
-341 -340 0
-341 -340 0
341 340 340 0
-342 341 0
-342 341 0
342 -341 -341 0
-343 307 0
-343 -342 0
-344 -307 0
-344 342 0
345 343 344 0
346 -272 -345 0
-347 18 0
-347 19 0
347 -18 -19 0
-348 -18 0
-348 -19 0
348 18 19 0
-349 -347 0
-349 -348 0
349 347 348 0
-350 20 0
-350 21 0
350 -20 -21 0
-351 -20 0
-351 -21 0
351 20 21 0
-352 -350 0
-352 -351 0
352 350 351 0
-353 -349 0
-353 -352 0
353 349 352 0
-354 349 0
-354 349 0
354 -349 -349 0
-355 352 0
-355 352 0
355 -352 -352 0
-356 -354 0
-356 -355 0
356 354 355 0
-357 -353 0
-357 -356 0
357 353 356 0
-358 8 0
-358 357 0
358 -8 -357 0
-359 -8 0
-359 -357 0
359 8 357 0
-360 -358 0
-360 -359 0
360 358 359 0
-361 23 0
-361 24 0
361 -23 -24 0
-362 -23 0
-362 -24 0
362 23 24 0
-363 -361 0
-363 -362 0
363 361 362 0
-364 25 0
-364 27 0
364 -25 -27 0
-365 -25 0
-365 -27 0
365 25 27 0
-366 -364 0
-366 -365 0
366 364 365 0
-367 -363 0
-367 -366 0
367 363 366 0
-368 363 0
-368 363 0
368 -363 -363 0
-369 366 0
-369 366 0
369 -366 -366 0
-370 -368 0
-370 -369 0
370 368 369 0
-371 -367 0
-371 -370 0
371 367 370 0
-372 28 0
-372 371 0
372 -28 -371 0
-373 -28 0
-373 -371 0
373 28 371 0
-374 -372 0
-374 -373 0
374 372 373 0
-375 -360 0
-375 -374 0
375 360 374 0
-376 360 0
-376 360 0
376 -360 -360 0
-377 374 0
-377 374 0
377 -374 -374 0
-378 -376 0
-378 -377 0
378 376 377 0
-379 -375 0
-379 -378 0
379 375 378 0
-380 -379 0
-380 -379 0
380 379 379 0
-381 380 0
-381 380 0
381 -380 -380 0
-382 18 0
-382 19 0
382 -18 -19 0
-383 -18 0
-383 -19 0
383 18 19 0
-384 -382 0
-384 -383 0
384 382 383 0
-385 20 0
-385 21 0
385 -20 -21 0
-386 -20 0
-386 -21 0
386 20 21 0
-387 -385 0
-387 -386 0
387 385 386 0
-388 -384 0
-388 -387 0
388 384 387 0
-389 384 0
-389 384 0
389 -384 -384 0
-390 387 0
-390 387 0
390 -387 -387 0
-391 -389 0
-391 -390 0
391 389 390 0
-392 -388 0
-392 -391 0
392 388 391 0
-393 8 0
-393 392 0
393 -8 -392 0
-394 -8 0
-394 -392 0
394 8 392 0
-395 -393 0
-395 -394 0
395 393 394 0
-396 23 0
-396 24 0
396 -23 -24 0
-397 -23 0
-397 -24 0
397 23 24 0
-398 -396 0
-398 -397 0
398 396 397 0
-399 25 0
-399 27 0
399 -25 -27 0
-400 -25 0
-400 -27 0
400 25 27 0
-401 -399 0
-401 -400 0
401 399 400 0
-402 -398 0
-402 -401 0
402 398 401 0
-403 398 0
-403 398 0
403 -398 -398 0
-404 401 0
-404 401 0
404 -401 -401 0
-405 -403 0
-405 -404 0
405 403 404 0
-406 -402 0
-406 -405 0
406 402 405 0
-407 28 0
-407 406 0
407 -28 -406 0
-408 -28 0
-408 -406 0
408 28 406 0
-409 -407 0
-409 -408 0
409 407 408 0
-410 -395 0
-410 -409 0
410 395 409 0
-411 395 0
-411 395 0
411 -395 -395 0
-412 409 0
-412 409 0
412 -409 -409 0
-413 -411 0
-413 -412 0
413 411 412 0
-414 -410 0
-414 -413 0
414 410 413 0
-415 -414 0
-415 -414 0
415 414 414 0
-416 415 0
-416 415 0
416 -415 -415 0
-417 381 0
-417 -416 0
-418 -381 0
-418 416 0
419 417 418 0
420 -346 -419 0
-421 43 0
-421 46 0
421 -43 -46 0
-422 47 0
-422 421 0
422 -47 -421 0
-423 48 0
-423 422 0
423 -48 -422 0
-424 227 0
-424 423 0
424 -227 -423 0
-425 49 0
-425 424 0
425 -49 -424 0
-426 -425 0
-426 -425 0
426 425 425 0
-427 426 0
-427 426 0
427 -426 -426 0
-428 27 0
-428 -427 0
428 -27 427 0
-429 34 0
-429 38 0
429 -34 -38 0
-430 -39 0
-430 -39 0
430 39 39 0
-431 430 0
-431 430 0
431 -430 -430 0
-432 -210 0
-432 -210 0
432 210 210 0
-433 432 0
-433 432 0
433 -432 -432 0
-434 41 0
-434 51 0
434 -41 -51 0
-435 52 0
-435 434 0
435 -52 -434 0
-436 -433 0
-436 435 0
436 433 -435 0
-437 45 0
-437 436 0
437 -45 -436 0
-438 431 0
-438 437 0
438 -431 -437 0
-439 17 0
-439 46 0
439 -17 -46 0
-440 -433 0
-440 -439 0
440 433 439 0
-441 22 0
-441 440 0
441 -22 -440 0
-442 26 0
-442 -441 0
442 -26 441 0
-443 16 0
-443 -442 0
443 -16 442 0
-444 -22 0
-444 -43 0
444 22 43 0
-445 22 0
-445 43 0
445 -22 -43 0
-446 -444 0
-446 -445 0
446 444 445 0
-447 46 0
-447 446 0
447 -46 -446 0
-448 17 0
-448 447 0
448 -17 -447 0
-449 -433 0
-449 448 0
449 433 -448 0
-450 26 0
-450 58 0
450 -26 -58 0
-451 44 0
-451 450 0
451 -44 -450 0
-452 22 0
-452 451 0
452 -22 -451 0
-453 452 0
-453 452 0
453 -452 -452 0
-454 46 0
-454 51 0
454 -46 -51 0
-455 43 0
-455 454 0
455 -43 -454 0
-456 -455 0
-456 -455 0
456 455 455 0
-457 -453 0
-457 -456 0
457 453 456 0
-458 -449 0
-458 -457 0
458 449 457 0
-459 7 0
-459 -458 0
459 -7 458 0
-460 -443 0
-460 -459 0
460 443 459 0
-461 -438 0
-461 460 0
461 438 -460 0
-462 33 0
-462 -461 0
462 -33 461 0
-463 -429 0
-463 -462 0
463 429 462 0
-464 6 0
-464 29 0
464 -6 -29 0
-465 -27 0
-465 461 0
465 27 -461 0
-466 27 0
-466 -461 0
466 -27 461 0
-467 -465 0
-467 -466 0
467 465 466 0
-468 -37 0
-468 -467 0
468 37 467 0
-469 37 0
-469 467 0
469 -37 -467 0
-470 -468 0
-470 -469 0
470 468 469 0
-471 30 0
-471 470 0
471 -30 -470 0
-472 -464 0
-472 -471 0
472 464 471 0
-473 31 0
-473 467 0
473 -31 -467 0
-474 466 0
-474 466 0
474 -466 -466 0
-475 32 0
-475 -474 0
475 -32 474 0
-476 -473 0
-476 -475 0
476 473 475 0
-477 472 0
-477 476 0
477 -472 -476 0
-478 463 0
-478 477 0
478 -463 -477 0
-479 -428 0
-479 478 0
479 428 -478 0
-480 479 0
-480 479 0
480 -479 -479 0
-481 480 0
-481 480 0
481 -480 -480 0
-482 481 0
-482 481 0
482 -481 -481 0
-483 482 0
-483 482 0
483 -482 -482 0
-484 43 0
-484 46 0
484 -43 -46 0
-485 47 0
-485 484 0
485 -47 -484 0
-486 48 0
-486 485 0
486 -48 -485 0
-487 235 0
-487 486 0
487 -235 -486 0
-488 49 0
-488 487 0
488 -49 -487 0
-489 -488 0
-489 -488 0
489 488 488 0
-490 489 0
-490 489 0
490 -489 -489 0
-491 27 0
-491 -490 0
491 -27 490 0
-492 34 0
-492 38 0
492 -34 -38 0
-493 -39 0
-493 -39 0
493 39 39 0
-494 493 0
-494 493 0
494 -493 -493 0
-495 -216 0
-495 -216 0
495 216 216 0
-496 495 0
-496 495 0
496 -495 -495 0
-497 41 0
-497 51 0
497 -41 -51 0
-498 52 0
-498 497 0
498 -52 -497 0
-499 -496 0
-499 498 0
499 496 -498 0
-500 45 0
-500 499 0
500 -45 -499 0
-501 494 0
-501 500 0
501 -494 -500 0
-502 17 0
-502 46 0
502 -17 -46 0
-503 -496 0
-503 -502 0
503 496 502 0
-504 22 0
-504 503 0
504 -22 -503 0
-505 26 0
-505 -504 0
505 -26 504 0
-506 16 0
-506 -505 0
506 -16 505 0
-507 -22 0
-507 -43 0
507 22 43 0
-508 22 0
-508 43 0
508 -22 -43 0
-509 -507 0
-509 -508 0
509 507 508 0
-510 46 0
-510 509 0
510 -46 -509 0
-511 17 0
-511 510 0
511 -17 -510 0
-512 -496 0
-512 511 0
512 496 -511 0
-513 26 0
-513 58 0
513 -26 -58 0
-514 44 0
-514 513 0
514 -44 -513 0
-515 22 0
-515 514 0
515 -22 -514 0
-516 515 0
-516 515 0
516 -515 -515 0
-517 46 0
-517 51 0
517 -46 -51 0
-518 43 0
-518 517 0
518 -43 -517 0
-519 -518 0
-519 -518 0
519 518 518 0
-520 -516 0
-520 -519 0
520 516 519 0
-521 -512 0
-521 -520 0
521 512 520 0
-522 7 0
-522 -521 0
522 -7 521 0
-523 -506 0
-523 -522 0
523 506 522 0
-524 -501 0
-524 523 0
524 501 -523 0
-525 33 0
-525 -524 0
525 -33 524 0
-526 -492 0
-526 -525 0
526 492 525 0
-527 6 0
-527 29 0
527 -6 -29 0
-528 -27 0
-528 524 0
528 27 -524 0
-529 27 0
-529 -524 0
529 -27 524 0
-530 -528 0
-530 -529 0
530 528 529 0
-531 -37 0
-531 -530 0
531 37 530 0
-532 37 0
-532 530 0
532 -37 -530 0
-533 -531 0
-533 -532 0
533 531 532 0
-534 30 0
-534 533 0
534 -30 -533 0
-535 -527 0
-535 -534 0
535 527 534 0
-536 31 0
-536 530 0
536 -31 -530 0
-537 529 0
-537 529 0
537 -529 -529 0
-538 32 0
-538 -537 0
538 -32 537 0
-539 -536 0
-539 -538 0
539 536 538 0
-540 535 0
-540 539 0
540 -535 -539 0
-541 526 0
-541 540 0
541 -526 -540 0
-542 -491 0
-542 541 0
542 491 -541 0
-543 542 0
-543 542 0
543 -542 -542 0
-544 543 0
-544 543 0
544 -543 -543 0
-545 544 0
-545 544 0
545 -544 -544 0
-546 545 0
-546 545 0
546 -545 -545 0
-547 483 0
-547 -546 0
-548 -483 0
-548 546 0
549 547 548 0
550 -420 -549 0
-551 12 0
-551 -442 0
551 -12 442 0
-552 4 0
-552 -458 0
552 -4 458 0
-553 -551 0
-553 -552 0
553 551 552 0
-554 1 0
-554 553 0
554 -1 -553 0
-555 62 0
-555 123 0
555 -62 -123 0
-556 -211 0
-556 555 0
556 211 -555 0
-557 -212 0
-557 556 0
557 212 -556 0
-558 -213 0
-558 557 0
558 213 -557 0
-559 -214 0
-559 558 0
559 214 -558 0
-560 438 0
-560 559 0
560 -438 -559 0
-561 32 0
-561 560 0
561 -32 -560 0
-562 554 0
-562 -561 0
562 -554 561 0
-563 33 0
-563 -562 0
563 -33 562 0
-564 23 0
-564 -427 0
564 -23 427 0
-565 -563 0
-565 -564 0
565 563 564 0
-566 3 0
-566 29 0
566 -3 -29 0
-567 -23 0
-567 562 0
567 23 -562 0
-568 23 0
-568 -562 0
568 -23 562 0
-569 -567 0
-569 -568 0
569 567 568 0
-570 431 0
-570 437 0
570 -431 -437 0
-571 13 0
-571 -442 0
571 -13 442 0
-572 5 0
-572 -458 0
572 -5 458 0
-573 -571 0
-573 -572 0
573 571 572 0
-574 -570 0
-574 573 0
574 570 -573 0
-575 -24 0
-575 574 0
575 24 -574 0
-576 431 0
-576 437 0
576 -431 -437 0
-577 14 0
-577 -442 0
577 -14 442 0
-578 6 0
-578 -458 0
578 -6 458 0
-579 -577 0
-579 -578 0
579 577 578 0
-580 -576 0
-580 579 0
580 576 -579 0
-581 -25 0
-581 580 0
581 25 -580 0
-582 -575 0
-582 -581 0
582 575 581 0
-583 -465 0
-583 582 0
583 465 -582 0
-584 37 0
-584 583 0
584 -37 -583 0
-585 -575 0
-585 -581 0
585 575 581 0
-586 -474 0
-586 585 0
586 474 -585 0
-587 24 0
-587 -574 0
587 -24 574 0
-588 587 0
-588 587 0
588 -587 -587 0
-589 588 0
-589 588 0
589 -588 -588 0
-590 25 0
-590 -580 0
590 -25 580 0
-591 590 0
-591 590 0
591 -590 -590 0
-592 -575 0
-592 -591 0
592 575 591 0
-593 -589 0
-593 -592 0
593 589 592 0
-594 -586 0
-594 593 0
594 586 -593 0
-595 -584 0
-595 594 0
595 584 -594 0
-596 -569 0
-596 595 0
596 569 -595 0
-597 569 0
-597 -595 0
597 -569 595 0
-598 -596 0
-598 -597 0
598 596 597 0
-599 30 0
-599 598 0
599 -30 -598 0
-600 -566 0
-600 -599 0
600 566 599 0
-601 31 0
-601 569 0
601 -31 -569 0
-602 568 0
-602 568 0
602 -568 -568 0
-603 32 0
-603 -602 0
603 -32 602 0
-604 -601 0
-604 -603 0
604 601 603 0
-605 600 0
-605 604 0
605 -600 -604 0
-606 565 0
-606 605 0
606 -565 -605 0
-607 606 0
-607 606 0
607 -606 -606 0
-608 607 0
-608 607 0
608 -607 -607 0
-609 608 0
-609 608 0
609 -608 -608 0
-610 609 0
-610 609 0
610 -609 -609 0
-611 494 0
-611 500 0
611 -494 -500 0
-612 12 0
-612 -505 0
612 -12 505 0
-613 4 0
-613 -521 0
613 -4 521 0
-614 -612 0
-614 -613 0
614 612 613 0
-615 -611 0
-615 614 0
615 611 -614 0
-616 33 0
-616 -615 0
616 -33 615 0
-617 23 0
-617 -490 0
617 -23 490 0
-618 -616 0
-618 -617 0
618 616 617 0
-619 3 0
-619 29 0
619 -3 -29 0
-620 -23 0
-620 615 0
620 23 -615 0
-621 23 0
-621 -615 0
621 -23 615 0
-622 -620 0
-622 -621 0
622 620 621 0
-623 494 0
-623 500 0
623 -494 -500 0
-624 13 0
-624 -505 0
624 -13 505 0
-625 5 0
-625 -521 0
625 -5 521 0
-626 -624 0
-626 -625 0
626 624 625 0
-627 -623 0
-627 626 0
627 623 -626 0
-628 -24 0
-628 627 0
628 24 -627 0
-629 494 0
-629 500 0
629 -494 -500 0
-630 14 0
-630 -505 0
630 -14 505 0
-631 6 0
-631 -521 0
631 -6 521 0
-632 -630 0
-632 -631 0
632 630 631 0
-633 -629 0
-633 632 0
633 629 -632 0
-634 -25 0
-634 633 0
634 25 -633 0
-635 -628 0
-635 -634 0
635 628 634 0
-636 -528 0
-636 635 0
636 528 -635 0
-637 37 0
-637 636 0
637 -37 -636 0
-638 -628 0
-638 -634 0
638 628 634 0
-639 -537 0
-639 638 0
639 537 -638 0
-640 24 0
-640 -627 0
640 -24 627 0
-641 640 0
-641 640 0
641 -640 -640 0
-642 641 0
-642 641 0
642 -641 -641 0
-643 25 0
-643 -633 0
643 -25 633 0
-644 643 0
-644 643 0
644 -643 -643 0
-645 -628 0
-645 -644 0
645 628 644 0
-646 -642 0
-646 -645 0
646 642 645 0
-647 -639 0
-647 646 0
647 639 -646 0
-648 -637 0
-648 647 0
648 637 -647 0
-649 -622 0
-649 648 0
649 622 -648 0
-650 622 0
-650 -648 0
650 -622 648 0
-651 -649 0
-651 -650 0
651 649 650 0
-652 30 0
-652 651 0
652 -30 -651 0
-653 -619 0
-653 -652 0
653 619 652 0
-654 31 0
-654 622 0
654 -31 -622 0
-655 621 0
-655 621 0
655 -621 -621 0
-656 32 0
-656 -655 0
656 -32 655 0
-657 -654 0
-657 -656 0
657 654 656 0
-658 653 0
-658 657 0
658 -653 -657 0
-659 618 0
-659 658 0
659 -618 -658 0
-660 659 0
-660 659 0
660 -659 -659 0
-661 660 0
-661 660 0
661 -660 -660 0
-662 661 0
-662 661 0
662 -661 -661 0
-663 662 0
-663 662 0
663 -662 -662 0
-664 610 0
-664 -663 0
-665 -610 0
-665 663 0
666 664 665 0
667 -550 -666 0
-668 24 0
-668 -427 0
668 -24 427 0
-669 34 0
-669 35 0
669 -34 -35 0
-670 33 0
-670 -574 0
670 -33 574 0
-671 -669 0
-671 -670 0
671 669 670 0
-672 4 0
-672 29 0
672 -4 -29 0
-673 -575 0
-673 -587 0
673 575 587 0
-674 -465 0
-674 -581 0
674 465 581 0
-675 37 0
-675 674 0
675 -37 -674 0
-676 591 0
-676 591 0
676 -591 -591 0
-677 -474 0
-677 -581 0
677 474 581 0
-678 -676 0
-678 -677 0
678 676 677 0
-679 -675 0
-679 678 0
679 675 -678 0
-680 -673 0
-680 679 0
680 673 -679 0
-681 673 0
-681 -679 0
681 -673 679 0
-682 -680 0
-682 -681 0
682 680 681 0
-683 30 0
-683 682 0
683 -30 -682 0
-684 -672 0
-684 -683 0
684 672 683 0
-685 31 0
-685 673 0
685 -31 -673 0
-686 32 0
-686 -588 0
686 -32 588 0
-687 -685 0
-687 -686 0
687 685 686 0
-688 684 0
-688 687 0
688 -684 -687 0
-689 671 0
-689 688 0
689 -671 -688 0
-690 -668 0
-690 689 0
690 668 -689 0
-691 690 0
-691 690 0
691 -690 -690 0
-692 691 0
-692 691 0
692 -691 -691 0
-693 692 0
-693 692 0
693 -692 -692 0
-694 693 0
-694 693 0
694 -693 -693 0
-695 24 0
-695 -490 0
695 -24 490 0
-696 34 0
-696 35 0
696 -34 -35 0
-697 33 0
-697 -627 0
697 -33 627 0
-698 -696 0
-698 -697 0
698 696 697 0
-699 4 0
-699 29 0
699 -4 -29 0
-700 -628 0
-700 -640 0
700 628 640 0
-701 -528 0
-701 -634 0
701 528 634 0
-702 37 0
-702 701 0
702 -37 -701 0
-703 644 0
-703 644 0
703 -644 -644 0
-704 -537 0
-704 -634 0
704 537 634 0
-705 -703 0
-705 -704 0
705 703 704 0
-706 -702 0
-706 705 0
706 702 -705 0
-707 -700 0
-707 706 0
707 700 -706 0
-708 700 0
-708 -706 0
708 -700 706 0
-709 -707 0
-709 -708 0
709 707 708 0
-710 30 0
-710 709 0
710 -30 -709 0
-711 -699 0
-711 -710 0
711 699 710 0
-712 31 0
-712 700 0
712 -31 -700 0
-713 32 0
-713 -641 0
713 -32 641 0
-714 -712 0
-714 -713 0
714 712 713 0
-715 711 0
-715 714 0
715 -711 -714 0
-716 698 0
-716 715 0
716 -698 -715 0
-717 -695 0
-717 716 0
717 695 -716 0
-718 717 0
-718 717 0
718 -717 -717 0
-719 718 0
-719 718 0
719 -718 -718 0
-720 719 0
-720 719 0
720 -719 -719 0
-721 720 0
-721 720 0
721 -720 -720 0
-722 694 0
-722 -721 0
-723 -694 0
-723 721 0
724 722 723 0
725 -667 -724 0
-726 25 0
-726 -427 0
726 -25 427 0
-727 34 0
-727 36 0
727 -34 -36 0
-728 33 0
-728 -580 0
728 -33 580 0
-729 -727 0
-729 -728 0
729 727 728 0
-730 5 0
-730 29 0
730 -5 -29 0
-731 -581 0
-731 -590 0
731 581 590 0
-732 474 0
-732 474 0
732 -474 -474 0
-733 37 0
-733 -465 0
733 -37 465 0
-734 -732 0
-734 -733 0
734 732 733 0
-735 -731 0
-735 734 0
735 731 -734 0
-736 731 0
-736 -734 0
736 -731 734 0
-737 -735 0
-737 -736 0
737 735 736 0
-738 30 0
-738 737 0
738 -30 -737 0
-739 -730 0
-739 -738 0
739 730 738 0
-740 31 0
-740 731 0
740 -31 -731 0
-741 32 0
-741 -591 0
741 -32 591 0
-742 -740 0
-742 -741 0
742 740 741 0
-743 739 0
-743 742 0
743 -739 -742 0
-744 729 0
-744 743 0
744 -729 -743 0
-745 -726 0
-745 744 0
745 726 -744 0
-746 745 0
-746 745 0
746 -745 -745 0
-747 746 0
-747 746 0
747 -746 -746 0
-748 747 0
-748 747 0
748 -747 -747 0
-749 748 0
-749 748 0
749 -748 -748 0
-750 25 0
-750 -490 0
750 -25 490 0
-751 34 0
-751 36 0
751 -34 -36 0
-752 33 0
-752 -633 0
752 -33 633 0
-753 -751 0
-753 -752 0
753 751 752 0
-754 5 0
-754 29 0
754 -5 -29 0
-755 -634 0
-755 -643 0
755 634 643 0
-756 537 0
-756 537 0
756 -537 -537 0
-757 37 0
-757 -528 0
757 -37 528 0
-758 -756 0
-758 -757 0
758 756 757 0
-759 -755 0
-759 758 0
759 755 -758 0
-760 755 0
-760 -758 0
760 -755 758 0
-761 -759 0
-761 -760 0
761 759 760 0
-762 30 0
-762 761 0
762 -30 -761 0
-763 -754 0
-763 -762 0
763 754 762 0
-764 31 0
-764 755 0
764 -31 -755 0
-765 32 0
-765 -644 0
765 -32 644 0
-766 -764 0
-766 -765 0
766 764 765 0
-767 763 0
-767 766 0
767 -763 -766 0
-768 753 0
-768 767 0
768 -753 -767 0
-769 -750 0
-769 768 0
769 750 -768 0
-770 769 0
-770 769 0
770 -769 -769 0
-771 770 0
-771 770 0
771 -770 -770 0
-772 771 0
-772 771 0
772 -771 -771 0
-773 772 0
-773 772 0
773 -772 -772 0
-774 749 0
-774 -773 0
-775 -749 0
-775 773 0
776 774 775 0
777 -725 -776 0
-778 10 0
-778 58 0
778 -10 -58 0
-779 60 0
-779 -458 0
779 -60 458 0
-780 -778 0
-780 -779 0
780 778 779 0
-781 -433 0
-781 -439 0
781 433 439 0
-782 45 0
-782 781 0
782 -45 -781 0
-783 12 0
-783 782 0
783 -12 -782 0
-784 22 0
-784 -433 0
784 -22 433 0
-785 435 0
-785 784 0
785 -435 -784 0
-786 -430 0
-786 785 0
786 430 -785 0
-787 -783 0
-787 -786 0
787 783 786 0
-788 780 0
-788 787 0
788 -780 -787 0
-789 18 0
-789 -788 0
789 -18 788 0
-790 789 0
-790 789 0
790 -789 -789 0
-791 790 0
-791 790 0
791 -790 -790 0
-792 -567 0
-792 -595 0
792 567 595 0
-793 602 0
-793 602 0
793 -602 -602 0
-794 -792 0
-794 -793 0
794 792 793 0
-795 10 0
-795 15 0
795 -10 -15 0
-796 3 0
-796 -458 0
796 -3 458 0
-797 -795 0
-797 -796 0
797 795 796 0
-798 16 0
-798 782 0
798 -16 -782 0
-799 -430 0
-799 785 0
799 430 -785 0
-800 -798 0
-800 -799 0
800 798 799 0
-801 797 0
-801 800 0
801 -797 -800 0
-802 -21 0
-802 801 0
802 21 -801 0
-803 10 0
-803 44 0
803 -10 -44 0
-804 61 0
-804 -458 0
804 -61 458 0
-805 -803 0
-805 -804 0
805 803 804 0
-806 13 0
-806 782 0
806 -13 -782 0
-807 -430 0
-807 785 0
807 430 -785 0
-808 -806 0
-808 -807 0
808 806 807 0
-809 805 0
-809 808 0
809 -805 -808 0
-810 -19 0
-810 809 0
810 19 -809 0
-811 10 0
-811 22 0
811 -10 -22 0
-812 2 0
-812 -458 0
812 -2 458 0
-813 -811 0
-813 -812 0
813 811 812 0
-814 14 0
-814 782 0
814 -14 -782 0
-815 -430 0
-815 785 0
815 430 -785 0
-816 -814 0
-816 -815 0
816 814 815 0
-817 813 0
-817 816 0
817 -813 -816 0
-818 -20 0
-818 817 0
818 20 -817 0
-819 -810 0
-819 -818 0
819 810 818 0
-820 -802 0
-820 819 0
820 802 -819 0
-821 -794 0
-821 820 0
821 794 -820 0
-822 21 0
-822 -801 0
822 -21 801 0
-823 822 0
-823 822 0
823 -822 -822 0
-824 -810 0
-824 -818 0
824 810 818 0
-825 -823 0
-825 824 0
825 823 -824 0
-826 19 0
-826 -809 0
826 -19 809 0
-827 826 0
-827 826 0
827 -826 -826 0
-828 827 0
-828 827 0
828 -827 -827 0
-829 20 0
-829 -817 0
829 -20 817 0
-830 829 0
-830 829 0
830 -829 -829 0
-831 -810 0
-831 -830 0
831 810 830 0
-832 -828 0
-832 -831 0
832 828 831 0
-833 -825 0
-833 832 0
833 825 -832 0
-834 -821 0
-834 833 0
834 821 -833 0
-835 -18 0
-835 788 0
835 18 -788 0
-836 -834 0
-836 -835 0
836 834 835 0
-837 -791 0
-837 -836 0
837 791 836 0
-838 -837 0
-838 -837 0
838 837 837 0
-839 838 0
-839 838 0
839 -838 -838 0
-840 839 0
-840 839 0
840 -839 -839 0
-841 10 0
-841 58 0
841 -10 -58 0
-842 60 0
-842 -521 0
842 -60 521 0
-843 -841 0
-843 -842 0
843 841 842 0
-844 -496 0
-844 -502 0
844 496 502 0
-845 45 0
-845 844 0
845 -45 -844 0
-846 12 0
-846 845 0
846 -12 -845 0
-847 22 0
-847 -496 0
847 -22 496 0
-848 498 0
-848 847 0
848 -498 -847 0
-849 -493 0
-849 848 0
849 493 -848 0
-850 -846 0
-850 -849 0
850 846 849 0
-851 843 0
-851 850 0
851 -843 -850 0
-852 18 0
-852 -851 0
852 -18 851 0
-853 852 0
-853 852 0
853 -852 -852 0
-854 853 0
-854 853 0
854 -853 -853 0
-855 -620 0
-855 -648 0
855 620 648 0
-856 655 0
-856 655 0
856 -655 -655 0
-857 -855 0
-857 -856 0
857 855 856 0
-858 10 0
-858 15 0
858 -10 -15 0
-859 3 0
-859 -521 0
859 -3 521 0
-860 -858 0
-860 -859 0
860 858 859 0
-861 16 0
-861 845 0
861 -16 -845 0
-862 -493 0
-862 848 0
862 493 -848 0
-863 -861 0
-863 -862 0
863 861 862 0
-864 860 0
-864 863 0
864 -860 -863 0
-865 -21 0
-865 864 0
865 21 -864 0
-866 10 0
-866 44 0
866 -10 -44 0
-867 61 0
-867 -521 0
867 -61 521 0
-868 -866 0
-868 -867 0
868 866 867 0
-869 13 0
-869 845 0
869 -13 -845 0
-870 -493 0
-870 848 0
870 493 -848 0
-871 -869 0
-871 -870 0
871 869 870 0
-872 868 0
-872 871 0
872 -868 -871 0
-873 -19 0
-873 872 0
873 19 -872 0
-874 10 0
-874 22 0
874 -10 -22 0
-875 2 0
-875 -521 0
875 -2 521 0
-876 -874 0
-876 -875 0
876 874 875 0
-877 14 0
-877 845 0
877 -14 -845 0
-878 -493 0
-878 848 0
878 493 -848 0
-879 -877 0
-879 -878 0
879 877 878 0
-880 876 0
-880 879 0
880 -876 -879 0
-881 -20 0
-881 880 0
881 20 -880 0
-882 -873 0
-882 -881 0
882 873 881 0
-883 -865 0
-883 882 0
883 865 -882 0
-884 -857 0
-884 883 0
884 857 -883 0
-885 21 0
-885 -864 0
885 -21 864 0
-886 885 0
-886 885 0
886 -885 -885 0
-887 -873 0
-887 -881 0
887 873 881 0
-888 -886 0
-888 887 0
888 886 -887 0
-889 19 0
-889 -872 0
889 -19 872 0
-890 889 0
-890 889 0
890 -889 -889 0
-891 890 0
-891 890 0
891 -890 -890 0
-892 20 0
-892 -880 0
892 -20 880 0
-893 892 0
-893 892 0
893 -892 -892 0
-894 -873 0
-894 -893 0
894 873 893 0
-895 -891 0
-895 -894 0
895 891 894 0
-896 -888 0
-896 895 0
896 888 -895 0
-897 -884 0
-897 896 0
897 884 -896 0
-898 -18 0
-898 851 0
898 18 -851 0
-899 -897 0
-899 -898 0
899 897 898 0
-900 -854 0
-900 -899 0
900 854 899 0
-901 -900 0
-901 -900 0
901 900 900 0
-902 901 0
-902 901 0
902 -901 -901 0
-903 902 0
-903 902 0
903 -902 -902 0
-904 840 0
-904 -903 0
-905 -840 0
-905 903 0
906 904 905 0
907 -777 -906 0
-908 33 0
-908 -801 0
908 -33 801 0
-909 21 0
-909 -427 0
909 -21 427 0
-910 -908 0
-910 -909 0
910 908 909 0
-911 2 0
-911 29 0
911 -2 -29 0
-912 -802 0
-912 -822 0
912 802 822 0
-913 794 0
-913 -912 0
913 -794 912 0
-914 -794 0
-914 912 0
914 794 -912 0
-915 -913 0
-915 -914 0
915 913 914 0
-916 30 0
-916 915 0
916 -30 -915 0
-917 -911 0
-917 -916 0
917 911 916 0
-918 31 0
-918 912 0
918 -31 -912 0
-919 32 0
-919 -823 0
919 -32 823 0
-920 -918 0
-920 -919 0
920 918 919 0
-921 917 0
-921 920 0
921 -917 -920 0
-922 910 0
-922 921 0
922 -910 -921 0
-923 922 0
-923 922 0
923 -922 -922 0
-924 923 0
-924 923 0
924 -923 -923 0
-925 924 0
-925 924 0
925 -924 -924 0
-926 925 0
-926 925 0
926 -925 -925 0
-927 33 0
-927 -864 0
927 -33 864 0
-928 21 0
-928 -490 0
928 -21 490 0
-929 -927 0
-929 -928 0
929 927 928 0
-930 2 0
-930 29 0
930 -2 -29 0
-931 -865 0
-931 -885 0
931 865 885 0
-932 857 0
-932 -931 0
932 -857 931 0
-933 -857 0
-933 931 0
933 857 -931 0
-934 -932 0
-934 -933 0
934 932 933 0
-935 30 0
-935 934 0
935 -30 -934 0
-936 -930 0
-936 -935 0
936 930 935 0
-937 31 0
-937 931 0
937 -31 -931 0
-938 32 0
-938 -886 0
938 -32 886 0
-939 -937 0
-939 -938 0
939 937 938 0
-940 936 0
-940 939 0
940 -936 -939 0
-941 929 0
-941 940 0
941 -929 -940 0
-942 941 0
-942 941 0
942 -941 -941 0
-943 942 0
-943 942 0
943 -942 -942 0
-944 943 0
-944 943 0
944 -943 -943 0
-945 944 0
-945 944 0
945 -944 -944 0
-946 926 0
-946 -945 0
-947 -926 0
-947 945 0
948 946 947 0
949 -907 -948 0
-950 33 0
-950 -788 0
950 -33 788 0
-951 18 0
-951 -427 0
951 -18 427 0
-952 -950 0
-952 -951 0
952 950 951 0
-953 29 0
-953 -431 0
953 -29 431 0
-954 -789 0
-954 -835 0
954 789 835 0
-955 834 0
-955 -954 0
955 -834 954 0
-956 -834 0
-956 954 0
956 834 -954 0
-957 -955 0
-957 -956 0
957 955 956 0
-958 30 0
-958 957 0
958 -30 -957 0
-959 -953 0
-959 -958 0
959 953 958 0
-960 31 0
-960 954 0
960 -31 -954 0
-961 32 0
-961 -790 0
961 -32 790 0
-962 -960 0
-962 -961 0
962 960 961 0
-963 959 0
-963 962 0
963 -959 -962 0
-964 952 0
-964 963 0
964 -952 -963 0
-965 964 0
-965 964 0
965 -964 -964 0
-966 965 0
-966 965 0
966 -965 -965 0
-967 966 0
-967 966 0
967 -966 -966 0
-968 967 0
-968 967 0
968 -967 -967 0
-969 33 0
-969 -851 0
969 -33 851 0
-970 18 0
-970 -490 0
970 -18 490 0
-971 -969 0
-971 -970 0
971 969 970 0
-972 29 0
-972 -494 0
972 -29 494 0
-973 -852 0
-973 -898 0
973 852 898 0
-974 897 0
-974 -973 0
974 -897 973 0
-975 -897 0
-975 973 0
975 897 -973 0
-976 -974 0
-976 -975 0
976 974 975 0
-977 30 0
-977 976 0
977 -30 -976 0
-978 -972 0
-978 -977 0
978 972 977 0
-979 31 0
-979 973 0
979 -31 -973 0
-980 32 0
-980 -853 0
980 -32 853 0
-981 -979 0
-981 -980 0
981 979 980 0
-982 978 0
-982 981 0
982 -978 -981 0
-983 971 0
-983 982 0
983 -971 -982 0
-984 983 0
-984 983 0
984 -983 -983 0
-985 984 0
-985 984 0
985 -984 -984 0
-986 985 0
-986 985 0
986 -985 -985 0
-987 986 0
-987 986 0
987 -986 -986 0
-988 968 0
-988 -987 0
-989 -968 0
-989 987 0
990 988 989 0
991 -949 -990 0
-992 33 0
-992 -809 0
992 -33 809 0
-993 19 0
-993 -427 0
993 -19 427 0
-994 -992 0
-994 -993 0
994 992 993 0
-995 29 0
-995 60 0
995 -29 -60 0
-996 -810 0
-996 -826 0
996 810 826 0
-997 -802 0
-997 -818 0
997 802 818 0
-998 -794 0
-998 997 0
998 794 -997 0
-999 830 0
-999 830 0
999 -830 -830 0
-1000 -818 0
-1000 -823 0
1000 818 823 0
-1001 -999 0
-1001 -1000 0
1001 999 1000 0
-1002 -998 0
-1002 1001 0
1002 998 -1001 0
-1003 -996 0
-1003 1002 0
1003 996 -1002 0
-1004 996 0
-1004 -1002 0
1004 -996 1002 0
-1005 -1003 0
-1005 -1004 0
1005 1003 1004 0
-1006 30 0
-1006 1005 0
1006 -30 -1005 0
-1007 -995 0
-1007 -1006 0
1007 995 1006 0
-1008 31 0
-1008 996 0
1008 -31 -996 0
-1009 32 0
-1009 -827 0
1009 -32 827 0
-1010 -1008 0
-1010 -1009 0
1010 1008 1009 0
-1011 1007 0
-1011 1010 0
1011 -1007 -1010 0
-1012 994 0
-1012 1011 0
1012 -994 -1011 0
-1013 1012 0
-1013 1012 0
1013 -1012 -1012 0
-1014 1013 0
-1014 1013 0
1014 -1013 -1013 0
-1015 1014 0
-1015 1014 0
1015 -1014 -1014 0
-1016 1015 0
-1016 1015 0
1016 -1015 -1015 0
-1017 33 0
-1017 -872 0
1017 -33 872 0
-1018 19 0
-1018 -490 0
1018 -19 490 0
-1019 -1017 0
-1019 -1018 0
1019 1017 1018 0
-1020 29 0
-1020 60 0
1020 -29 -60 0
-1021 -873 0
-1021 -889 0
1021 873 889 0
-1022 -865 0
-1022 -881 0
1022 865 881 0
-1023 -857 0
-1023 1022 0
1023 857 -1022 0
-1024 893 0
-1024 893 0
1024 -893 -893 0
-1025 -881 0
-1025 -886 0
1025 881 886 0
-1026 -1024 0
-1026 -1025 0
1026 1024 1025 0
-1027 -1023 0
-1027 1026 0
1027 1023 -1026 0
-1028 -1021 0
-1028 1027 0
1028 1021 -1027 0
-1029 1021 0
-1029 -1027 0
1029 -1021 1027 0
-1030 -1028 0
-1030 -1029 0
1030 1028 1029 0
-1031 30 0
-1031 1030 0
1031 -30 -1030 0
-1032 -1020 0
-1032 -1031 0
1032 1020 1031 0
-1033 31 0
-1033 1021 0
1033 -31 -1021 0
-1034 32 0
-1034 -890 0
1034 -32 890 0
-1035 -1033 0
-1035 -1034 0
1035 1033 1034 0
-1036 1032 0
-1036 1035 0
1036 -1032 -1035 0
-1037 1019 0
-1037 1036 0
1037 -1019 -1036 0
-1038 1037 0
-1038 1037 0
1038 -1037 -1037 0
-1039 1038 0
-1039 1038 0
1039 -1038 -1038 0
-1040 1039 0
-1040 1039 0
1040 -1039 -1039 0
-1041 1040 0
-1041 1040 0
1041 -1040 -1040 0
-1042 1016 0
-1042 -1041 0
-1043 -1016 0
-1043 1041 0
1044 1042 1043 0
1045 -991 -1044 0
-1046 33 0
-1046 -817 0
1046 -33 817 0
-1047 20 0
-1047 -427 0
1047 -20 427 0
-1048 -1046 0
-1048 -1047 0
1048 1046 1047 0
-1049 29 0
-1049 61 0
1049 -29 -61 0
-1050 -818 0
-1050 -829 0
1050 818 829 0
-1051 823 0
-1051 823 0
1051 -823 -823 0
-1052 -794 0
-1052 -802 0
1052 794 802 0
-1053 -1051 0
-1053 -1052 0
1053 1051 1052 0
-1054 -1050 0
-1054 1053 0
1054 1050 -1053 0
-1055 1050 0
-1055 -1053 0
1055 -1050 1053 0
-1056 -1054 0
-1056 -1055 0
1056 1054 1055 0
-1057 30 0
-1057 1056 0
1057 -30 -1056 0
-1058 -1049 0
-1058 -1057 0
1058 1049 1057 0
-1059 31 0
-1059 1050 0
1059 -31 -1050 0
-1060 32 0
-1060 -830 0
1060 -32 830 0
-1061 -1059 0
-1061 -1060 0
1061 1059 1060 0
-1062 1058 0
-1062 1061 0
1062 -1058 -1061 0
-1063 1048 0
-1063 1062 0
1063 -1048 -1062 0
-1064 1063 0
-1064 1063 0
1064 -1063 -1063 0
-1065 1064 0
-1065 1064 0
1065 -1064 -1064 0
-1066 1065 0
-1066 1065 0
1066 -1065 -1065 0
-1067 1066 0
-1067 1066 0
1067 -1066 -1066 0
-1068 33 0
-1068 -880 0
1068 -33 880 0
-1069 20 0
-1069 -490 0
1069 -20 490 0
-1070 -1068 0
-1070 -1069 0
1070 1068 1069 0
-1071 29 0
-1071 61 0
1071 -29 -61 0
-1072 -881 0
-1072 -892 0
1072 881 892 0
-1073 886 0
-1073 886 0
1073 -886 -886 0
-1074 -857 0
-1074 -865 0
1074 857 865 0
-1075 -1073 0
-1075 -1074 0
1075 1073 1074 0
-1076 -1072 0
-1076 1075 0
1076 1072 -1075 0
-1077 1072 0
-1077 -1075 0
1077 -1072 1075 0
-1078 -1076 0
-1078 -1077 0
1078 1076 1077 0
-1079 30 0
-1079 1078 0
1079 -30 -1078 0
-1080 -1071 0
-1080 -1079 0
1080 1071 1079 0
-1081 31 0
-1081 1072 0
1081 -31 -1072 0
-1082 32 0
-1082 -893 0
1082 -32 893 0
-1083 -1081 0
-1083 -1082 0
1083 1081 1082 0
-1084 1080 0
-1084 1083 0
1084 -1080 -1083 0
-1085 1070 0
-1085 1084 0
1085 -1070 -1084 0
-1086 1085 0
-1086 1085 0
1086 -1085 -1085 0
-1087 1086 0
-1087 1086 0
1087 -1086 -1086 0
-1088 1087 0
-1088 1087 0
1088 -1087 -1087 0
-1089 1088 0
-1089 1088 0
1089 -1088 -1088 0
-1090 1067 0
-1090 -1089 0
-1091 -1067 0
-1091 1089 0
1092 1090 1091 0
1093 -1045 -1092 0
-1093 0
